50

100 16 301
97 11 345
96 26 297
92 28 353
89 45 290
86 27 267
83 35 312
83 7 334
82 35 307
79 25 304
77 28 234
76 26 252
73 16 339
73 16 327
70 12 231
69 11 260
69 3 320
61 12 258
60 17 325
60 27 300
60 14 221
58 1 293
56 1 275
56 7 335
53 23 351
51 14 255
49 16 267
48 24 266
48 21 233
48 19 353
47 7 333
46 1 312
42 15 287
41 2 359
36 2 150
35 8 348
34 10 113
32 7 160
32 7 340
32 12 211
31 7 128
22 11 356
17 8 170
12 3 343
12 2 304
6 2 102
6 1 213
5 1 78
3 1 159
2 1 301
